% seed = 9587659

mint = 57;
% maxt = 220;

nActs = 42;
dur = [0,2,6,7,4,6,8,2,1,6,8,10,6,7,2,6,1,2,6,3,10,6,5,7,5,2,9,6,6,4,4,10,3,3,10,2,7,9,5,8,6,0];

nSkills = 4;
sreq = [| 0,0,0,0,
	| 0,1,5,3,
	| 0,1,5,5,
	| 6,4,5,0,
	| 0,5,6,4,
	| 3,0,7,7,
	| 5,0,6,5,
	| 0,6,2,2,
	| 3,0,3,3,
	| 4,2,0,5,
	| 4,1,0,4,
	| 2,3,0,7,
	| 5,3,4,0,
	| 4,0,4,3,
	| 3,2,1,0,
	| 0,7,4,7,
	| 7,0,3,3,
	| 2,3,5,0,
	| 4,3,0,7,
	| 0,6,6,3,
	| 0,1,4,2,
	| 7,0,5,2,
	| 4,0,5,3,
	| 7,7,0,5,
	| 7,0,3,4,
	| 4,0,4,1,
	| 3,0,7,2,
	| 0,3,5,3,
	| 0,5,4,5,
	| 3,4,3,0,
	| 3,4,0,4,
	| 5,4,3,0,
	| 3,6,3,0,
	| 3,0,5,4,
	| 6,4,1,0,
	| 6,2,0,3,
	| 3,0,3,7,
	| 3,2,0,4,
	| 3,6,0,4,
	| 2,4,4,0,
	| 3,3,5,0,
	| 0,0,0,0, |];

nResources = 30;
mastery = [| true,false,true,true,
	| true,true,true,false,
	| false,true,false,false,
	| true,false,false,false,
	| true,false,true,false,
	| true,false,false,true,
	| true,true,false,true,
	| false,false,true,true,
	| false,false,true,true,
	| false,true,true,false,
	| false,true,true,true,
	| true,true,false,false,
	| true,false,true,true,
	| true,false,true,true,
	| false,true,true,true,
	| false,true,false,true,
	| false,true,true,true,
	| false,true,false,true,
	| true,false,true,true,
	| false,false,true,false,
	| false,false,true,false,
	| true,false,false,true,
	| true,false,false,false,
	| true,false,false,false,
	| true,true,false,true,
	| true,false,false,true,
	| false,true,false,false,
	| false,false,false,true,
	| true,false,true,false,
	| true,false,true,false, |];

nPrecs = 73;
pred = [1,1,1,2,2,2,3,3,3,4,4,4,5,5,5,6,6,6,7,7,7,8,8,8,9,9,9,10,10,11,12,12,12,13,14,14,15,15,15,16,17,17,17,18,19,20,20,20,21,22,23,24,25,25,26,27,28,28,29,29,30,31,32,33,34,34,35,36,37,38,39,40,41];
succ = [2,3,4,33,5,14,10,27,21,17,6,24,9,7,8,18,12,15,25,18,13,29,22,23,11,35,19,13,37,40,35,20,22,16,41,23,33,34,39,30,25,27,40,26,20,21,30,32,39,25,40,34,30,32,37,28,33,36,35,32,31,38,39,41,36,38,36,37,38,41,42,42,42];

nUnrels = 495;
unpred = [2,2,2,2,2,2,2,2,2,2,2,3,3,3,3,3,3,3,3,3,3,3,3,3,3,3,3,3,3,3,3,3,3,3,3,4,4,4,4,4,4,4,4,4,4,4,4,5,5,5,5,5,5,5,5,5,5,5,6,6,6,6,6,6,6,6,6,6,6,6,6,6,6,6,7,7,7,7,7,7,7,7,7,7,7,7,7,7,7,7,7,7,7,7,7,7,8,8,8,8,8,8,8,8,8,8,8,8,8,8,8,8,8,8,8,9,9,9,9,9,9,9,9,9,9,9,9,9,9,9,9,9,9,10,10,10,10,10,10,10,10,10,10,10,10,10,10,10,10,10,10,10,10,10,10,10,10,11,11,11,11,11,11,11,11,11,11,11,11,11,11,11,11,11,11,11,11,11,11,11,11,11,11,11,11,11,12,12,12,12,12,12,12,12,12,12,12,12,12,12,12,12,13,13,13,13,13,13,13,13,13,13,13,13,13,13,13,13,13,13,13,13,13,13,13,14,14,14,14,14,14,14,14,14,14,14,14,14,14,14,14,14,14,14,14,14,14,14,14,15,15,15,15,15,15,15,15,15,15,15,15,15,15,15,15,15,15,15,16,16,16,16,16,16,16,16,16,16,16,16,16,16,16,16,16,16,16,16,16,17,17,17,17,17,17,17,17,17,17,17,18,18,18,18,18,18,18,18,18,18,18,18,18,18,18,18,18,18,18,19,19,19,19,19,19,19,19,19,19,19,19,19,19,20,20,20,20,20,20,20,20,20,20,20,20,20,20,21,21,21,21,21,21,21,21,21,21,21,21,21,21,21,21,21,21,21,22,22,22,22,22,22,22,22,22,22,22,22,23,23,23,23,23,23,23,23,23,23,23,23,23,23,23,23,23,24,24,24,24,24,24,24,24,24,24,24,24,25,25,25,25,25,25,25,25,25,25,26,26,26,26,26,26,26,26,26,26,26,26,27,27,27,27,27,27,27,27,28,28,28,28,28,28,28,28,29,29,29,29,29,30,30,30,30,30,30,30,30,31,31,31,31,31,31,31,31,32,32,32,32,32,32,32,32,33,33,33,33,33,33,33,34,34,34,35,35,36,36,37,37,38,38,39,39,40];
unsucc = [3,4,6,10,12,15,17,24,27,28,34,4,5,6,7,8,9,11,12,14,15,17,18,19,20,22,23,24,25,26,29,32,34,35,40,5,7,8,9,10,11,13,14,16,19,23,29,6,10,12,14,15,17,24,27,28,33,34,7,8,9,10,11,13,14,16,17,19,23,24,27,28,29,40,8,9,10,11,12,14,15,17,19,20,21,22,23,24,27,28,29,33,34,35,36,40,9,10,11,12,13,14,15,16,17,18,19,20,21,24,26,27,28,33,34,10,12,13,14,15,16,17,18,22,23,24,25,26,27,28,29,33,34,11,12,14,15,17,18,19,20,21,22,23,24,25,26,27,28,29,32,33,34,35,36,39,40,12,13,14,15,16,17,18,19,20,21,22,23,24,25,26,27,28,29,30,31,32,33,34,35,36,37,38,39,41,13,14,15,16,17,18,19,23,24,26,27,28,29,33,34,40,14,15,17,18,19,20,21,22,23,24,25,26,27,28,29,32,33,34,35,36,37,39,40,15,16,17,18,19,20,21,22,24,25,26,27,28,29,30,31,32,33,34,35,36,37,38,39,16,17,18,19,20,21,22,23,24,25,26,27,28,29,30,31,32,35,40,17,18,19,20,21,22,23,24,25,26,27,28,29,32,33,34,35,36,37,39,40,18,19,20,21,22,23,24,26,29,34,35,19,20,21,22,23,24,25,27,28,29,30,31,32,33,34,35,36,39,40,22,23,24,25,26,27,28,29,33,34,35,36,37,40,22,23,24,25,26,27,28,29,33,34,35,36,37,40,22,23,24,25,26,27,28,29,30,31,32,33,34,35,36,37,38,40,41,23,24,26,27,28,29,33,34,35,36,37,40,24,25,26,27,28,29,30,31,32,33,34,35,36,37,38,39,41,25,26,27,28,29,30,31,32,33,35,39,40,26,27,28,29,33,34,35,36,37,40,27,28,29,30,31,32,33,34,35,36,39,40,29,30,31,32,34,35,39,40,29,30,31,32,34,35,39,40,30,31,33,34,40,32,33,34,35,36,37,39,40,32,33,34,35,36,37,39,40,33,34,35,36,37,38,40,41,34,35,36,37,38,39,40,35,39,40,39,40,39,40,39,40,39,40,40,41,41];

USEFUL_RES = [{},
	{1,2,3,5,6,7,8,9,10,11,12,13,14,15,16,17,18,19,20,21,22,25,26,27,28,29,30},
	{1,2,3,5,6,7,8,9,10,11,12,13,14,15,16,17,18,19,20,21,22,25,26,27,28,29,30},
	{1,2,3,4,5,6,7,8,9,10,11,12,13,14,15,16,17,18,19,20,21,22,23,24,25,26,27,29,30},
	{1,2,3,5,6,7,8,9,10,11,12,13,14,15,16,17,18,19,20,21,22,25,26,27,28,29,30},
	{1,2,4,5,6,7,8,9,10,11,12,13,14,15,16,17,18,19,20,21,22,23,24,25,26,28,29,30},
	{1,2,4,5,6,7,8,9,10,11,12,13,14,15,16,17,18,19,20,21,22,23,24,25,26,28,29,30},
	{1,2,3,5,6,7,8,9,10,11,12,13,14,15,16,17,18,19,20,21,22,25,26,27,28,29,30},
	{1,2,4,5,6,7,8,9,10,11,12,13,14,15,16,17,18,19,20,21,22,23,24,25,26,28,29,30},
	{1,2,3,4,5,6,7,8,9,10,11,12,13,14,15,16,17,18,19,22,23,24,25,26,27,28,29,30},
	{1,2,3,4,5,6,7,8,9,10,11,12,13,14,15,16,17,18,19,22,23,24,25,26,27,28,29,30},
	{1,2,3,4,5,6,7,8,9,10,11,12,13,14,15,16,17,18,19,22,23,24,25,26,27,28,29,30},
	{1,2,3,4,5,6,7,8,9,10,11,12,13,14,15,16,17,18,19,20,21,22,23,24,25,26,27,29,30},
	{1,2,4,5,6,7,8,9,10,11,12,13,14,15,16,17,18,19,20,21,22,23,24,25,26,28,29,30},
	{1,2,3,4,5,6,7,8,9,10,11,12,13,14,15,16,17,18,19,20,21,22,23,24,25,26,27,29,30},
	{1,2,3,5,6,7,8,9,10,11,12,13,14,15,16,17,18,19,20,21,22,25,26,27,28,29,30},
	{1,2,4,5,6,7,8,9,10,11,12,13,14,15,16,17,18,19,20,21,22,23,24,25,26,28,29,30},
	{1,2,3,4,5,6,7,8,9,10,11,12,13,14,15,16,17,18,19,20,21,22,23,24,25,26,27,29,30},
	{1,2,3,4,5,6,7,8,9,10,11,12,13,14,15,16,17,18,19,22,23,24,25,26,27,28,29,30},
	{1,2,3,5,6,7,8,9,10,11,12,13,14,15,16,17,18,19,20,21,22,25,26,27,28,29,30},
	{1,2,3,5,6,7,8,9,10,11,12,13,14,15,16,17,18,19,20,21,22,25,26,27,28,29,30},
	{1,2,4,5,6,7,8,9,10,11,12,13,14,15,16,17,18,19,20,21,22,23,24,25,26,28,29,30},
	{1,2,4,5,6,7,8,9,10,11,12,13,14,15,16,17,18,19,20,21,22,23,24,25,26,28,29,30},
	{1,2,3,4,5,6,7,8,9,10,11,12,13,14,15,16,17,18,19,22,23,24,25,26,27,28,29,30},
	{1,2,4,5,6,7,8,9,10,11,12,13,14,15,16,17,18,19,20,21,22,23,24,25,26,28,29,30},
	{1,2,4,5,6,7,8,9,10,11,12,13,14,15,16,17,18,19,20,21,22,23,24,25,26,28,29,30},
	{1,2,4,5,6,7,8,9,10,11,12,13,14,15,16,17,18,19,20,21,22,23,24,25,26,28,29,30},
	{1,2,3,5,6,7,8,9,10,11,12,13,14,15,16,17,18,19,20,21,22,25,26,27,28,29,30},
	{1,2,3,5,6,7,8,9,10,11,12,13,14,15,16,17,18,19,20,21,22,25,26,27,28,29,30},
	{1,2,3,4,5,6,7,8,9,10,11,12,13,14,15,16,17,18,19,20,21,22,23,24,25,26,27,29,30},
	{1,2,3,4,5,6,7,8,9,10,11,12,13,14,15,16,17,18,19,22,23,24,25,26,27,28,29,30},
	{1,2,3,4,5,6,7,8,9,10,11,12,13,14,15,16,17,18,19,20,21,22,23,24,25,26,27,29,30},
	{1,2,3,4,5,6,7,8,9,10,11,12,13,14,15,16,17,18,19,20,21,22,23,24,25,26,27,29,30},
	{1,2,4,5,6,7,8,9,10,11,12,13,14,15,16,17,18,19,20,21,22,23,24,25,26,28,29,30},
	{1,2,3,4,5,6,7,8,9,10,11,12,13,14,15,16,17,18,19,20,21,22,23,24,25,26,27,29,30},
	{1,2,3,4,5,6,7,8,9,10,11,12,13,14,15,16,17,18,19,22,23,24,25,26,27,28,29,30},
	{1,2,4,5,6,7,8,9,10,11,12,13,14,15,16,17,18,19,20,21,22,23,24,25,26,28,29,30},
	{1,2,3,4,5,6,7,8,9,10,11,12,13,14,15,16,17,18,19,22,23,24,25,26,27,28,29,30},
	{1,2,3,4,5,6,7,8,9,10,11,12,13,14,15,16,17,18,19,22,23,24,25,26,27,28,29,30},
	{1,2,3,4,5,6,7,8,9,10,11,12,13,14,15,16,17,18,19,20,21,22,23,24,25,26,27,29,30},
	{1,2,3,4,5,6,7,8,9,10,11,12,13,14,15,16,17,18,19,20,21,22,23,24,25,26,27,29,30},
	{}];

POTENTIAL_ACT = [{2,3,4,5,6,7,8,9,10,11,12,13,14,15,16,17,18,19,20,21,22,23,24,25,26,27,28,29,30,31,32,33,34,35,36,37,38,39,40,41},
	{2,3,4,5,6,7,8,9,10,11,12,13,14,15,16,17,18,19,20,21,22,23,24,25,26,27,28,29,30,31,32,33,34,35,36,37,38,39,40,41},
	{2,3,4,5,8,10,11,12,13,15,16,18,19,20,21,24,28,29,30,31,32,33,35,36,38,39,40,41},
	{4,6,7,9,10,11,12,13,14,15,17,18,19,22,23,24,25,26,27,30,31,32,33,34,35,36,37,38,39,40,41},
	{2,3,4,5,6,7,8,9,10,11,12,13,14,15,16,17,18,19,20,21,22,23,24,25,26,27,28,29,30,31,32,33,34,35,36,37,38,39,40,41},
	{2,3,4,5,6,7,8,9,10,11,12,13,14,15,16,17,18,19,20,21,22,23,24,25,26,27,28,29,30,31,32,33,34,35,36,37,38,39,40,41},
	{2,3,4,5,6,7,8,9,10,11,12,13,14,15,16,17,18,19,20,21,22,23,24,25,26,27,28,29,30,31,32,33,34,35,36,37,38,39,40,41},
	{2,3,4,5,6,7,8,9,10,11,12,13,14,15,16,17,18,19,20,21,22,23,24,25,26,27,28,29,30,31,32,33,34,35,36,37,38,39,40,41},
	{2,3,4,5,6,7,8,9,10,11,12,13,14,15,16,17,18,19,20,21,22,23,24,25,26,27,28,29,30,31,32,33,34,35,36,37,38,39,40,41},
	{2,3,4,5,6,7,8,9,10,11,12,13,14,15,16,17,18,19,20,21,22,23,24,25,26,27,28,29,30,31,32,33,34,35,36,37,38,39,40,41},
	{2,3,4,5,6,7,8,9,10,11,12,13,14,15,16,17,18,19,20,21,22,23,24,25,26,27,28,29,30,31,32,33,34,35,36,37,38,39,40,41},
	{2,3,4,5,6,7,8,9,10,11,12,13,14,15,16,17,18,19,20,21,22,23,24,25,26,27,28,29,30,31,32,33,34,35,36,37,38,39,40,41},
	{2,3,4,5,6,7,8,9,10,11,12,13,14,15,16,17,18,19,20,21,22,23,24,25,26,27,28,29,30,31,32,33,34,35,36,37,38,39,40,41},
	{2,3,4,5,6,7,8,9,10,11,12,13,14,15,16,17,18,19,20,21,22,23,24,25,26,27,28,29,30,31,32,33,34,35,36,37,38,39,40,41},
	{2,3,4,5,6,7,8,9,10,11,12,13,14,15,16,17,18,19,20,21,22,23,24,25,26,27,28,29,30,31,32,33,34,35,36,37,38,39,40,41},
	{2,3,4,5,6,7,8,9,10,11,12,13,14,15,16,17,18,19,20,21,22,23,24,25,26,27,28,29,30,31,32,33,34,35,36,37,38,39,40,41},
	{2,3,4,5,6,7,8,9,10,11,12,13,14,15,16,17,18,19,20,21,22,23,24,25,26,27,28,29,30,31,32,33,34,35,36,37,38,39,40,41},
	{2,3,4,5,6,7,8,9,10,11,12,13,14,15,16,17,18,19,20,21,22,23,24,25,26,27,28,29,30,31,32,33,34,35,36,37,38,39,40,41},
	{2,3,4,5,6,7,8,9,10,11,12,13,14,15,16,17,18,19,20,21,22,23,24,25,26,27,28,29,30,31,32,33,34,35,36,37,38,39,40,41},
	{2,3,4,5,6,7,8,9,13,14,15,16,17,18,20,21,22,23,25,26,27,28,29,30,32,33,34,35,37,40,41},
	{2,3,4,5,6,7,8,9,13,14,15,16,17,18,20,21,22,23,25,26,27,28,29,30,32,33,34,35,37,40,41},
	{2,3,4,5,6,7,8,9,10,11,12,13,14,15,16,17,18,19,20,21,22,23,24,25,26,27,28,29,30,31,32,33,34,35,36,37,38,39,40,41},
	{4,6,7,9,10,11,12,13,14,15,17,18,19,22,23,24,25,26,27,30,31,32,33,34,35,36,37,38,39,40,41},
	{4,6,7,9,10,11,12,13,14,15,17,18,19,22,23,24,25,26,27,30,31,32,33,34,35,36,37,38,39,40,41},
	{2,3,4,5,6,7,8,9,10,11,12,13,14,15,16,17,18,19,20,21,22,23,24,25,26,27,28,29,30,31,32,33,34,35,36,37,38,39,40,41},
	{2,3,4,5,6,7,8,9,10,11,12,13,14,15,16,17,18,19,20,21,22,23,24,25,26,27,28,29,30,31,32,33,34,35,36,37,38,39,40,41},
	{2,3,4,5,8,10,11,12,13,15,16,18,19,20,21,24,28,29,30,31,32,33,35,36,38,39,40,41},
	{2,3,5,6,7,8,9,10,11,12,14,16,17,19,20,21,22,23,24,25,26,27,28,29,31,34,36,37,38,39},
	{2,3,4,5,6,7,8,9,10,11,12,13,14,15,16,17,18,19,20,21,22,23,24,25,26,27,28,29,30,31,32,33,34,35,36,37,38,39,40,41},
	{2,3,4,5,6,7,8,9,10,11,12,13,14,15,16,17,18,19,20,21,22,23,24,25,26,27,28,29,30,31,32,33,34,35,36,37,38,39,40,41}];
